
Gurobi 9.5.1 (mac64[x86]) logging started Wed Jun  8 17:13:05 2022

Set parameter LogFile to value "/Users/keyvanmajd/Documents/GitHub/NNRepLayer_v2/demos/walking_example/repair_bound_constraint/repair_net/logs/opt_log_6_8_2022_17_12_49.log"
Gurobi Optimizer version 9.5.1 build v9.5.1rc2 (mac64[x86])
Thread count: 4 physical cores, 8 logical processors, using up to 8 threads
Optimize a model with 430 rows, 166 columns and 1507 nonzeros
Model fingerprint: 0xf0ce60c4
Model has 101 quadratic objective terms
Coefficient statistics:
  Matrix range     [3e-03, 2e+01]
  Objective range  [4e-03, 4e-01]
  QObjective range [2e-02, 2e+00]
  Bounds range     [1e+01, 4e+01]
  RHS range        [2e-04, 2e+01]
Presolve removed 275 rows and 38 columns
Presolve time: 0.01s
Presolved: 155 rows, 128 columns, 1167 nonzeros
Presolved model has 101 quadratic objective terms
Ordering time: 0.00s

Barrier statistics:
 Dense cols : 19
 AA' NZ     : 1.447e+03
 Factor NZ  : 2.164e+03
 Factor Ops : 4.062e+04 (less than 1 second per iteration)
 Threads    : 1

                  Objective                Residual
Iter       Primal          Dual         Primal    Dual     Compl     Time
   0   1.62528507e+07 -1.72779199e+07  4.09e+03 4.01e+02  8.66e+05     0s
   1   5.84626961e+06 -6.95227756e+06  2.33e+03 2.28e+02  5.00e+05     0s
   2   3.55151883e+05 -2.10442894e+06  5.60e+02 5.48e+01  1.54e+05     0s
   3   1.49258014e+02 -1.65170101e+06  9.08e-01 8.89e-02  5.52e+03     0s
   4   1.40323414e+02 -4.37522711e+03  8.21e-04 8.03e-05  1.45e+01     0s
   5   6.82297271e+01 -1.92216678e+02  8.65e-06 8.47e-07  8.35e-01     0s
   6   9.98304446e+00 -3.60105345e+01  8.63e-12 8.45e-13  1.47e-01     0s
   7   2.71593252e+00  1.19479698e-01  3.38e-13 5.58e-15  8.32e-03     0s
   8   1.99818219e+00  1.59169172e+00  4.57e-12 2.96e-15  1.30e-03     0s
   9   1.90565874e+00  1.80180705e+00  1.84e-11 6.29e-15  3.33e-04     0s
  10   1.89225346e+00  1.87079514e+00  8.90e-12 1.29e-15  6.88e-05     0s
  11   1.89051549e+00  1.88441737e+00  2.50e-11 6.15e-16  1.95e-05     0s
  12   1.88960335e+00  1.88867642e+00  5.00e-12 1.55e-15  2.97e-06     0s
  13   1.88950202e+00  1.88946131e+00  2.57e-12 8.88e-16  1.30e-07     0s
  14   1.88949798e+00  1.88949794e+00  1.71e-12 2.07e-14  1.36e-10     0s

Barrier solved model in 14 iterations and 0.01 seconds (0.00 work units)
Optimal objective 1.88949798e+00

